
Log started (V12.10.0.0) Fri Apr 23 07:19:12 2021


Problem 'asset.lp' read.
Read time = 0.02 sec. (1.14 ticks)
New value for default parallel thread count: 1
New value for time limit in seconds: 150
Version identifier: 12.10.0.0 | 2019-11-26 | 843d4de
CPXPARAM_Threads                                 1
CPXPARAM_TimeLimit                               150
Found incumbent of value 0.000000 after 0.00 sec. (0.26 ticks)
Tried aggregator 4 times.
MIP Presolve eliminated 4497 rows and 329 columns.
MIP Presolve modified 8133 coefficients.
Aggregator did 3083 substitutions.
Reduced MIP has 3390 rows, 3936 columns, and 18872 nonzeros.
Reduced MIP has 3570 binaries, 290 generals, 0 SOSs, and 0 indicators.
Presolve time = 0.04 sec. (52.59 ticks)
Probing fixed 495 vars, tightened 53 bounds.
Probing time = 0.04 sec. (25.56 ticks)
Cover probing fixed 0 vars, tightened 50 bounds.
Tried aggregator 1 time.
MIP Presolve eliminated 717 rows and 601 columns.
MIP Presolve modified 382 coefficients.
Reduced MIP has 2673 rows, 3335 columns, and 15241 nonzeros.
Reduced MIP has 3022 binaries, 237 generals, 0 SOSs, and 0 indicators.
Presolve time = 0.01 sec. (7.41 ticks)
Probing time = 0.00 sec. (3.36 ticks)
Tried aggregator 1 time.
Detecting symmetries...
MIP Presolve modified 2422 coefficients.
Reduced MIP has 2673 rows, 3335 columns, and 15241 nonzeros.
Reduced MIP has 3022 binaries, 237 generals, 0 SOSs, and 0 indicators.
Presolve time = 0.01 sec. (9.19 ticks)
Probing time = 0.00 sec. (3.32 ticks)
Clique table members: 10301.
MIP emphasis: balance optimality and feasibility.
MIP search method: dynamic search.
Parallel mode: none, using 1 thread.
Root relaxation solution time = 0.07 sec. (103.04 ticks)

        Nodes                                         Cuts/
   Node  Left     Objective  IInf  Best Integer    Best Bound    ItCnt     Gap

*     0+    0                            0.0000      995.0000              --- 
      0     0      752.2434   366        0.0000      752.2434     1301     --- 
      0     0      743.5611   366        0.0000     Cuts: 365     2429     --- 
      0     0      742.1543   366        0.0000     Cuts: 768     3428     --- 
      0     0      739.3377   366        0.0000     Cuts: 768     4647     --- 
*     0+    0                           20.0000      739.3377              --- 
      0     0        cutoff             20.0000      739.3377     4647     --- 
      0     0      739.2432   366       20.0000     Cuts: 768     5637     --- 
      0     0      738.9430   366       20.0000     Cuts: 768     6833     --- 
Detecting symmetries...
      0     0      738.9173   366       20.0000     Cuts: 768     7796     --- 
*     0+    0                           35.0000      738.9173              --- 
*     0+    0                          150.0000      738.9173           392.61%
*     0+    0                          260.0000      738.9173           184.20%
*     0+    0                          270.0000      738.9173           173.67%
      0     0        cutoff            270.0000      738.9173     7796  173.67%
      0     0      738.9087   366      270.0000     Cuts: 165     8284  173.67%
      0     0      738.9072   366      270.0000     Cuts: 768     9281  173.67%
*     0+    0                          290.0000      738.9072           154.80%
*     0+    0                          320.0000      738.9072           130.91%
*     0+    0                          355.0000      738.9072           108.14%
Detecting symmetries...
      0     2      738.9072   320      355.0000      738.9072     9281  108.14%
Elapsed time = 2.40 sec. (3366.82 ticks, tree = 0.01 MB, solutions = 8)
      2     4      738.9072   378      355.0000      738.9072    11752  108.14%
      8    10      738.6685   322      355.0000      738.9072    13254  108.14%
     10    12      738.9072   300      355.0000      738.9072    13432  108.14%
     18    20      734.0147   301      355.0000      738.9072    15141  108.14%
     23    25      730.0046   268      355.0000      738.9072    16603  108.14%
     33    35      726.3673   266      355.0000      738.9072    18356  108.14%
     47    47      720.5624   310      355.0000      738.9072    19728  108.14%
     88    83      678.8751   237      355.0000      738.9072    21939  108.14%
    130   106      629.0455   182      355.0000      738.9072    23757  108.14%
    200   143      738.9072   335      355.0000      738.9072    26747  108.14%
Elapsed time = 4.83 sec. (7075.31 ticks, tree = 3.00 MB, solutions = 8)
    218   161      727.2560   329      355.0000      738.9072    33703  108.14%
    247   190      720.0110   239      355.0000      738.9072    37549  108.14%
    331   258    infeasible            355.0000      738.9072    45449  108.14%
*   466   343      integral     0      395.0000      738.9072    48140   87.07%
    468   344      738.9072   380      395.0000      738.9072    50594   87.07%
    514   390      718.9273   286      395.0000      738.9072    56317   87.07%
*   566+  439                          405.0000      738.9072            82.45%
    582   457      675.1024   283      405.0000      738.9072    61457   82.45%
    616   491      730.5271   281      405.0000      738.9072    66851   82.45%
*   677+  546                          415.0000      738.9072            78.05%
*   677+  546                          425.0000      738.9072            73.86%
*   677+  545                          430.0000      738.9072            71.84%
*   677+  540                          445.0000      738.9072            66.05%
*   677+  535                          450.0000      738.9072            64.20%
*   677+  529                          460.0000      738.9072            60.63%
    677   531      738.6675   371      460.0000      738.9072    74848   60.63%
*   678+  527                          465.0000      738.9072            58.90%
    681   532      734.0147   330      465.0000      738.9072    77709   58.90%
    698   549      725.8611   339      465.0000      738.9072    83706   58.90%
Elapsed time = 12.77 sec. (18656.05 ticks, tree = 13.06 MB, solutions = 17)
    759   610      698.6911   268      465.0000      738.9072    87933   58.90%

Performing restart 1

Repeating presolve.
Tried aggregator 2 times.
MIP Presolve modified 3052 coefficients.
Aggregator did 7 substitutions.
Reduced MIP has 2666 rows, 3328 columns, and 12611 nonzeros.
Reduced MIP has 3015 binaries, 237 generals, 0 SOSs, and 0 indicators.
Presolve time = 0.01 sec. (13.73 ticks)
Tried aggregator 1 time.
Reduced MIP has 2666 rows, 3328 columns, and 12611 nonzeros.
Reduced MIP has 3015 binaries, 237 generals, 0 SOSs, and 0 indicators.
Presolve time = 0.01 sec. (8.54 ticks)
Represolve time = 0.09 sec. (66.67 ticks)
    788     0      724.6049   426      465.0000     Cuts: 457   100000   55.83%
    788     0      711.5252   426      465.0000     Cuts: 341   102408   53.02%
    788     0      703.2115   426      465.0000     Cuts: 340   104279   51.23%
    788     0      700.2867   426      465.0000     Cuts: 368   106206   50.60%
    788     0      697.7343   426      465.0000     Cuts: 368   107791   50.05%
    788     0      695.1352   426      465.0000     Cuts: 282   109286   49.49%
    788     0      693.6984   426      465.0000     Cuts: 240   110538   49.18%
    788     0      692.6682   426      465.0000     Cuts: 257   112177   48.96%
    788     0      692.1265   426      465.0000     Cuts: 169   113118   48.84%
    788     0      691.0306   426      465.0000     Cuts: 221   113889   48.61%
    788     0      689.8587   426      465.0000     Cuts: 225   114877   48.36%
    788     0      689.4905   426      465.0000     Cuts: 198   115539   48.28%
    788     0      689.3918   426      465.0000     Cuts: 237   116131   48.26%
    788     0      689.2266   426      465.0000     Cuts: 144   116780   48.22%
    788     0      689.1125   426      465.0000     Cuts: 113   117496   48.20%
    788     0      688.8834   426      465.0000     Cuts: 104   118304   48.15%
    788     0      688.6568   426      465.0000     Cuts: 132   119279   48.10%
    788     0      688.3317   426      465.0000     Cuts: 156   119892   48.03%
    788     0      688.2652   426      465.0000     Cuts: 127   120614   48.01%
    788     0      688.1501   426      465.0000     Cuts: 132   121053   47.99%
    788     0      688.0262   426      465.0000     Cuts: 129   121777   47.96%
    788     0      687.7514   426      465.0000     Cuts: 144   122954   47.90%
    788     0      687.6098   426      465.0000     Cuts: 194   123637   47.87%
    788     0      687.4382   426      465.0000     Cuts: 100   124417   47.84%
    788     0      687.3790   426      465.0000     Cuts: 167   124854   47.82%
    788     0      687.2635   426      465.0000     Cuts: 128   125555   47.80%
    788     0      686.9954   426      465.0000     Cuts: 207   126148   47.74%
    788     0      686.5403   426      465.0000     Cuts: 215   127049   47.64%
    788     0      686.3536   426      465.0000     Cuts: 188   127994   47.60%
    788     0      686.1995   426      465.0000     Cuts: 158   128741   47.57%
    788     0      686.1173   426      465.0000     Cuts: 154   129312   47.55%
    788     0      686.0533   426      465.0000      Cuts: 81   129706   47.54%
    788     0      685.9649   426      465.0000     Cuts: 119   130319   47.52%
*   788+    0                          470.0000      685.9649            45.95%
    788     2      685.9649   419      470.0000      685.9614   130319   45.95%
    790     4      668.2907   350      470.0000      685.8432   134854   45.92%
    794     8      685.1040   391      470.0000      685.8432   136602   45.92%
    796    10      685.0308   397      470.0000      685.8432   138629   45.92%
    798    12      669.1909   356      470.0000      685.8432   140879   45.92%
    801    15      684.7757   404      470.0000      685.8432   144015   45.92%
    806    20      682.8476   380      470.0000      685.8432   148413   45.92%
    813    27      681.2982   344      470.0000      685.8432   153431   45.92%
    817    31      682.7629   402      470.0000      685.8432   156356   45.92%
Elapsed time = 44.76 sec. (62622.98 ticks, tree = 0.42 MB, solutions = 18)
    818    32      680.2466   374      470.0000      685.8432   157272   45.92%
    821    35      678.5990   335      470.0000      685.8432   161032   45.92%
    826    39      666.6689   351      470.0000      685.8432   166481   45.92%
    833    45      657.4205   307      470.0000      685.8432   169315   45.92%
    839    50      642.8114   311      470.0000      685.8432   172550   45.92%
    846    57      640.8582   300      470.0000      685.8432   176997   45.92%
    853    64      638.5362   284      470.0000      685.8432   179645   45.92%
    862    73      626.5408   269      470.0000      685.8432   183083   45.92%
    887    96      618.0785   238      470.0000      685.8432   187299   45.92%
    943   134      605.5600   234      470.0000      685.8432   191191   45.92%
Elapsed time = 51.47 sec. (73286.23 ticks, tree = 0.60 MB, solutions = 18)
    955   134      684.6020   378      470.0000      685.2707   193829   45.80%
    961   140      662.0301   329      470.0000      685.2707   199100   45.80%
    970   149      679.0995   368      470.0000      685.2707   201797   45.80%
    977   156      655.0846   300      470.0000      685.2707   208233   45.80%
    988   167      666.5236   332      470.0000      685.2707   213010   45.80%
   1004   183      647.2315   286      470.0000      685.2707   219919   45.80%
   1029   208      624.4316   240      470.0000      685.2707   227829   45.80%
   1070   233      684.0474   387      470.0000      684.5751   235009   45.65%
   1088   251      682.2961   365      470.0000      684.5751   238953   45.65%
   1103   266      677.9391   346      470.0000      684.5751   245222   45.65%
Elapsed time = 58.69 sec. (84582.07 ticks, tree = 0.83 MB, solutions = 18)
   1128   291      665.4897   306      470.0000      684.5751   250244   45.65%
   1182   333      674.5819   366      470.0000      684.5523   258652   45.65%
   1188   339      651.2017   338      470.0000      684.5523   262252   45.65%
   1207   358      639.0961   294      470.0000      684.5523   267435   45.65%
   1265   414      603.1091   241      470.0000      684.5523   272717   45.65%
   1290   435      671.9141   385      470.0000      684.5301   277112   45.64%
   1300   445      664.7824   321      470.0000      684.5301   281912   45.64%
   1329   472        cutoff            470.0000      684.5301   288524   45.64%
   1356   493      585.0701   225      470.0000      684.5301   294570   45.64%
   1364   497      678.7055   367      470.0000      684.4957   298943   45.64%
Elapsed time = 67.04 sec. (97376.94 ticks, tree = 1.21 MB, solutions = 18)
   1374   507      677.8095   357      470.0000      684.4957   304154   45.64%
   1380   513      666.6197   309      470.0000      684.4957   310082   45.64%
   1391   524      662.5803   336      470.0000      684.4957   314697   45.64%
   1410   543      645.7788   260      470.0000      684.4957   321196   45.64%
   1442   569      619.2275   221      470.0000      684.4957   326821   45.64%
   1449   572      679.2708   359      470.0000      684.4957   331538   45.64%
   1469   592      666.1606   332      470.0000      684.4957   338012   45.64%
   1502   618      645.7822   284      470.0000      684.4957   344713   45.64%
   1542   646      676.2766   377      470.0000      684.2330   351622   45.58%
   1557   661      636.7948   307      470.0000      684.2330   358611   45.58%
Elapsed time = 73.65 sec. (107642.22 ticks, tree = 1.51 MB, solutions = 18)
   1574   675      599.7147   257      470.0000      684.2330   364716   45.58%
*  1588+  684                          480.0000      684.2330            42.55%
   1592   690      552.1369   167      480.0000      684.2330   367968   42.55%
   1617   706      680.4727   427      480.0000      683.9715   375365   42.49%
   1621   710      675.8035   393      480.0000      683.9715   379972   42.49%
   1636   725      667.9475   360      480.0000      683.9715   385295   42.49%
   1664   753      655.0836   335      480.0000      683.9715   390862   42.49%
   1681   770      624.3640   296      480.0000      683.9715   396155   42.49%
   1688   777      603.5622   273      480.0000      683.9715   398452   42.49%
   1703   788      666.7503   366      480.0000      683.9561   404377   42.49%
   1708   793      662.4487   338      480.0000      683.9561   406381   42.49%
Elapsed time = 82.63 sec. (120600.38 ticks, tree = 1.74 MB, solutions = 19)
   1729   814      625.2380   281      480.0000      683.9561   412439   42.49%
   1745   824      680.9343   372      480.0000      683.8930   418400   42.48%
   1753   832      672.1041   346      480.0000      683.8930   422971   42.48%
   1762   841      654.7299   297      480.0000      683.8930   428879   42.48%
   1780   859      647.5680   271      480.0000      683.8930   434608   42.48%
   1788   867      641.6926   290      480.0000      683.8930   437378   42.48%
   1806   885      635.0229   270      480.0000      683.8930   443898   42.48%
   1822   901      637.6807   265      480.0000      683.8930   450794   42.48%
   1852   929      602.4418   237      480.0000      683.8930   457636   42.48%
   1892   949      612.4857   235      480.0000      683.8930   464580   42.48%
Elapsed time = 89.80 sec. (131110.53 ticks, tree = 2.02 MB, solutions = 19)
   1917   960      663.3332   353      480.0000      683.8916   471306   42.48%
   1945   988      649.8868   313      480.0000      683.8916   477295   42.48%
   1981  1019      675.1740   375      480.0000      683.6599   484939   42.43%
*  1988+ 1024                          490.0000      683.6599            39.52%
   1988  1026      649.1989   331      490.0000      683.6599   488542   39.52%
   2007  1043      616.9363   241      490.0000      683.6599   495622   39.52%
   2033  1065      678.4312   414      490.0000      683.6458   505481   39.52%
   2040  1072      638.6769   309      490.0000      683.6458   513011   39.52%
   2065  1091      665.1070   397      490.0000      683.5662   520795   39.50%
   2069  1095      657.8400   340      490.0000      683.5662   526723   39.50%
   2098  1124      616.9306   277      490.0000      683.5662   537817   39.50%
Elapsed time = 101.79 sec. (148274.34 ticks, tree = 2.34 MB, solutions = 20)
   2153  1174      650.9613   305      490.0000      683.5630   557630   39.50%
*  2188+ 1207                          495.0000      683.5630            38.09%
   2194  1215      618.2863   237      495.0000      683.5630   574097   38.09%
   2262  1270      661.4011   311      495.0000      683.5273   594864   38.09%
   2336  1336      673.7100   364      495.0000      683.4488   611163   38.07%
*  2388+ 1376                          500.0000      683.3879            36.68%
   2388  1378      647.5077   339      500.0000      683.3879   630878   36.68%
   2479  1467      534.9556   148      500.0000      683.3879   654922   36.68%
   2588  1563      645.5432   278      500.0000      683.3871   676424   36.68%
   2666  1636      594.6646   252      500.0000      683.3566   703642   36.67%
   2763  1714      509.0421    92      500.0000      683.3566   718100   36.67%
*  2788+ 1719                          505.0000      683.3525            35.32%
*  2788+ 1680                          510.0000      683.3525            33.99%
   2788  1682      620.5044   294      510.0000      683.3525   737509   33.99%
Elapsed time = 131.33 sec. (190592.33 ticks, tree = 3.35 MB, solutions = 24)
   2843  1733      640.5255   294      510.0000      683.2653   760484   33.97%
*  2888+ 1754                          515.0000      683.2653            32.67%
Starting limited solution polishing.
   2939  1800      650.2352   323      515.0000      683.0066   780700   32.62%
   3020  1874      643.1729   288      515.0000      683.0035   800843   32.62%
   3104  1950      641.0324   309      515.0000      682.8445   827366   32.59%
   3140  1983      679.5459   378      515.0000      682.8176   850581   32.59%
   3174  2012      676.1065   386      515.0000      682.8007   872594   32.58%
*  3188+ 2007                          520.0000      682.8007            31.31%
*  3188+ 1991                          525.0000      682.8007            30.06%
   3211  2012      548.4680   183      525.0000      682.8007   887199   30.06%

GUB cover cuts applied:  143
Clique cuts applied:  52
Cover cuts applied:  22
Implied bound cuts applied:  62
Flow cuts applied:  6
Mixed integer rounding cuts applied:  112
Zero-half cuts applied:  116
Lift and project cuts applied:  23
Gomory fractional cuts applied:  17

Root node processing (before b&c):
  Real time             =    2.38 sec. (3352.95 ticks)
Sequential b&c:
  Real time             =  147.62 sec. (214606.58 ticks)
                          ------------
Total (root+branch&cut) =  150.00 sec. (217959.53 ticks)

Solution pool: 28 solutions saved.

MIP - Time limit exceeded, integer feasible:  Objective =  5.2500000000e+02
Current MIP best bound =  6.8280072744e+02 (gap = 157.801, 30.06%)
Solution time =  150.00 sec.  Iterations = 888392  Nodes = 3215 (2011)
Deterministic time = 217959.55 ticks  (1453.05 ticks/sec)


Incumbent solution
Variable Name           Solution Value
F                           525.000000
y116                          1.000000
y81                           1.000000
y51                           1.000000
y185                          1.000000
y38                           1.000000
y194                          1.000000
y215                          1.000000
y168                          1.000000
y30                           1.000000
y315                          1.000000
y53                           1.000000
y237                          1.000000
y68                           1.000000
y20                           1.000000
y276                          1.000000
y170                          1.000000
y146                          1.000000
y211                          1.000000
y89                           1.000000
y305                          1.000000
y109                          1.000000
y251                          1.000000
y61                           1.000000
y278                          1.000000
y283                          1.000000
y220                          1.000000
y4                            1.000000
y10                           1.000000
y27                           1.000000
y243                          1.000000
y28                           1.000000
x245x185x1                    1.000000
x97x51x1                      1.000000
x157x146x1                    1.000000
x104x215x1                    1.000000
x104x30x1                     1.000000
x23x215x1                     1.000000
x192x81x1                     1.000000
x158x81x1                     1.000000
x158x168x1                    1.000000
x96x68x2                      1.000000
x25x116x2                     1.000000
x155x194x2                    1.000000
x23x237x2                     1.000000
x221x51x2                     1.000000
x221x315x2                    1.000000
x105x38x2                     1.000000
x105x168x2                    1.000000
x47x30x2                      1.000000
x96x211x3                     1.000000
x25x38x3                      1.000000
x97x315x3                     1.000000
x157x211x3                    1.000000
x155x185x3                    1.000000
x244x53x3                     2.000000
x192x116x3                    1.000000
x47x194x3                     1.000000
x116x237x2                    1.000000
x116x20x3                     1.000000
x81x276x1                     1.000000
x81x89x1                      1.000000
x51x170x1                     1.000000
x51x170x2                     1.000000
x185x68x1                     1.000000
x185x146x3                    1.000000
x38x109x2                     1.000000
x38x276x3                     1.000000
x194x27x2                     1.000000
x194x251x3                    1.000000
x215x278x1                    2.000000
x168x283x1                    1.000000
x168x20x2                     1.000000
x30x61x1                      1.000000
x30x109x2                     1.000000
x315x61x2                     1.000000
x315x89x3                     1.000000
x53x251x3                     1.000000
x53x283x3                     1.000000
x237x305x2                    2.000000
x68x27x1                      1.000000
x68x10x2                      1.000000
x20x4x2                       1.000000
x20x10x3                      1.000000
x276x28x1                     1.000000
x276x4x3                      1.000000
x170x0x1                      1.000000
x170x243x2                    1.000000
x146x0x1                      1.000000
x146x28x3                     1.000000
x211x220x3                    2.000000
x89x0x1                       1.000000
x89x243x3                     1.000000
x305x0x2                      2.000000
x109x0x2                      2.000000
x251x0x3                      2.000000
x61x0x1                       1.000000
x61x0x2                       1.000000
x278x0x1                      2.000000
x283x0x1                      1.000000
x283x0x3                      1.000000
x220x0x3                      2.000000
x4x0x2                        1.000000
x4x0x3                        1.000000
x10x0x2                       1.000000
x10x0x3                       1.000000
x27x0x1                       1.000000
x27x0x2                       1.000000
x243x0x2                      1.000000
x243x0x3                      1.000000
x28x0x1                       1.000000
x28x0x3                       1.000000
s96                           6.124016
s24                           7.440000
s237                          7.685778
s175                          7.770000
s127                          7.830000
s177                          7.890000
s199                          7.950000
s68                           7.960000
z96z68z2                      1.000000
s20                           8.000000
s236                          8.010000
s276                          8.010000
s170                          7.916457
s176                          7.090000
s146                          7.826128
s211                          7.903416
z96z211z3                     1.000000
s210                          8.130000
s18                           8.140000
s131                          8.180000
s89                           8.089287
s310                          7.420000
s9                            8.430000
s120                          8.620000
s303                          8.670000
z96z303z3                     1.000000
s34                           7.700000
z96z34z2                      1.000000
s305                          8.830000
z96z305z2                     1.000000
s239                          7.850000
z96z239z2                     1.000000
s32                           8.860000
z96z32z2                      1.000000
s142                          9.030000
s143                          8.080000
s109                          9.110000
z96z109z2                     1.000000
s251                          9.120000
z96z251z3                     1.000000
s60                           9.140000
z96z60z2                      1.000000
s61                           8.633985
s283                          9.150000
s17                           9.170000
z96z17z2                      1.000000
s220                          9.240000
z96z220z3                     1.000000
s249                          9.240000
z96z249z2                     1.000000
s4                            9.320000
s10                           9.340000
s27                           9.370000
s243                          9.370000
s28                           9.450000
s245                          4.796510
s5                            5.500000
s154                          5.560000
s140                          5.570000
s81                           6.440079
s201                          5.650000
s51                           6.657142
s78                           5.820000
s198                          6.678311
s185                          6.613526
z245z185z1                    1.000000
s215                          6.986489
s8                            6.140000
s254                          6.190000
s252                          6.200000
s311                          7.049925
s108                          7.054236
s168                          6.748899
s30                           7.072835
s169                          7.077162
s262                          6.410000
s124                          6.570000
z245z124z1                    1.000000
s92                           6.720000
z245z92z1                     1.000000
s26                           6.930000
z245z26z1                     1.000000
s48                           6.940000
z245z48z1                     1.000000
s304                          6.980000
z245z304z1                    1.000000
s300                          7.120000
z245z300z1                    1.000000
s179                          8.560000
z245z179z1                    1.000000
s278                          9.140000
z245z278z1                    1.000000
s25                           4.900400
s259                          5.230000
s191                          5.240000
s116                          6.279644
z25z116z2                     1.000000
s173                          5.570000
s33                           5.600000
s166                          5.680000
s231                          5.680000
s296                          6.640764
s11                           5.920000
s38                           6.633393
z25z38z3                      1.000000
s183                          5.940000
s271                          6.915108
s194                          7.020359
s37                           6.160000
s16                           7.063132
s159                          6.260000
s106                          6.290000
s315                          6.842565
s53                           7.147124
z25z53z3                      1.000000
z25z24z3                      1.000000
z25z237z2                     1.000000
z25z211z3                     1.000000
z25z303z3                     1.000000
z25z34z2                      1.000000
z25z305z2                     1.000000
z25z239z2                     1.000000
z25z32z2                      1.000000
z25z109z2                     1.000000
z25z251z3                     1.000000
z25z60z2                      1.000000
z25z17z2                      1.000000
z25z220z3                     1.000000
z25z249z2                     1.000000
s97                           4.908510
z97z51z1                      1.000000
z97z315z3                     1.000000
z97z26z1                      1.000000
z97z48z1                      1.000000
z97z211z3                     1.000000
z97z300z1                     1.000000
z97z179z1                     1.000000
z97z303z3                     1.000000
z97z251z3                     1.000000
z97z278z1                     1.000000
z97z220z3                     1.000000
s157                          4.910760
z157z146z1                    1.000000
z157z211z3                    1.000000
z157z300z1                    1.000000
z157z179z1                    1.000000
z157z303z3                    1.000000
z157z251z3                    1.000000
z157z278z1                    1.000000
z157z220z3                    1.000000
s104                          4.935800
z104z215z1                    1.000000
z104z30z1                     1.000000
z104z169z1                    1.000000
z104z48z1                     1.000000
z104z300z1                    1.000000
z104z179z1                    1.000000
z104z278z1                    1.000000
s155                          4.953530
z155z185z3                    1.000000
z155z194z2                    1.000000
z155z237z2                    1.000000
z155z211z3                    1.000000
z155z303z3                    1.000000
z155z34z2                     1.000000
z155z305z2                    1.000000
z155z239z2                    1.000000
z155z32z2                     1.000000
z155z109z2                    1.000000
z155z251z3                    1.000000
z155z60z2                     1.000000
z155z17z2                     1.000000
z155z220z3                    1.000000
z155z249z2                    1.000000
s23                           5.287040
z23z215z1                     1.000000
z23z237z2                     1.000000
z23z300z1                     1.000000
z23z179z1                     1.000000
z23z34z2                      1.000000
z23z305z2                     1.000000
z23z239z2                     1.000000
z23z32z2                      1.000000
z23z109z2                     1.000000
z23z60z2                      1.000000
z23z278z1                     1.000000
z23z17z2                      1.000000
z23z249z2                     1.000000
s221                          5.072500
z221z51z2                     1.000000
z221z315z2                    1.000000
z221z34z2                     1.000000
z221z305z2                    1.000000
z221z239z2                    1.000000
z221z32z2                     1.000000
z221z109z2                    1.000000
z221z60z2                     1.000000
z221z17z2                     1.000000
z221z249z2                    1.000000
s244                          5.420550
z244z53z3                     1.000000
z244z303z3                    1.000000
z244z251z3                    1.000000
z244z220z3                    1.000000
s192                          5.130810
z192z116z3                    1.000000
z192z81z1                     1.000000
z192z92z1                     1.000000
z192z26z1                     1.000000
z192z48z1                     1.000000
z192z304z1                    1.000000
z192z211z3                    1.000000
z192z300z1                    1.000000
z192z179z1                    1.000000
z192z303z3                    1.000000
z192z251z3                    1.000000
z192z278z1                    1.000000
z192z220z3                    1.000000
s158                          5.160000
z158z81z1                     1.000000
z158z168z1                    1.000000
z158z92z1                     1.000000
z158z26z1                     1.000000
z158z48z1                     1.000000
z158z304z1                    1.000000
z158z300z1                    1.000000
z158z179z1                    1.000000
z158z278z1                    1.000000
s105                          5.260000
z105z38z2                     1.000000
z105z168z2                    1.000000
z105z237z2                    1.000000
z105z34z2                     1.000000
z105z305z2                    1.000000
z105z239z2                    1.000000
z105z32z2                     1.000000
z105z109z2                    1.000000
z105z60z2                     1.000000
z105z17z2                     1.000000
z105z249z2                    1.000000
s47                           5.619530
z47z194z3                     1.000000
z47z30z2                      1.000000
z47z303z3                     1.000000
z47z34z2                      1.000000
z47z305z2                     1.000000
z47z239z2                     1.000000
z47z32z2                      1.000000
z47z109z2                     1.000000
z47z251z3                     1.000000
z47z60z2                      1.000000
z47z17z2                      1.000000
z47z220z3                     1.000000
z47z249z2                     1.000000
z259z220z3                    1.000000
z191z305z2                    1.000000
z191z239z2                    1.000000
z191z32z2                     1.000000
z191z220z3                    1.000000
z191z249z2                    1.000000
z116z237z2                    1.000000
z116z20z3                     1.000000
z116z32z2                     1.000000
z116z220z3                    1.000000
z116z249z2                    1.000000
z5z278z1                      1.000000
z154z278z1                    1.000000
z154z220z3                    1.000000
z140z278z1                    1.000000
z140z220z3                    1.000000
z173z249z2                    1.000000
z33z249z2                     1.000000
z81z276z1                     1.000000
z81z89z1                      1.000000
z81z278z1                     1.000000
z201z278z1                    1.000000
z201z220z3                    1.000000
z51z170z1                     1.000000
z51z170z2                     1.000000
z51z278z1                     1.000000
z51z249z2                     1.000000
z166z249z2                    1.000000
z231z249z2                    1.000000
z296z220z3                    1.000000
z296z249z2                    1.000000
z78z278z1                     1.000000
z78z220z3                     1.000000
z198z278z1                    1.000000
z185z68z1                     1.000000
z185z146z3                    1.000000
z185z278z1                    1.000000
z185z220z3                    1.000000
z11z249z2                     1.000000
z38z276z3                     1.000000
z38z109z2                     1.000000
z38z220z3                     1.000000
z38z249z2                     1.000000
z183z220z3                    1.000000
z183z249z2                    1.000000
z271z249z2                    1.000000
z194z251z3                    1.000000
z194z220z3                    1.000000
z194z249z2                    1.000000
z194z27z2                     1.000000
z215z278z1                    1.000000
z8z278z1                      1.000000
z8z220z3                      1.000000
z37z220z3                     1.000000
z254z278z1                    1.000000
z254z249z2                    1.000000
z252z278z1                    1.000000
z252z220z3                    1.000000
z311z278z1                    1.000000
z311z249z2                    1.000000
z108z278z1                    1.000000
z108z249z2                    1.000000
z16z249z2                     1.000000
z159z249z2                    1.000000
z168z20z2                     1.000000
z168z278z1                    1.000000
z168z283z1                    1.000000
z168z249z2                    1.000000
z30z109z2                     1.000000
z30z61z1                      1.000000
z30z278z1                     1.000000
z30z249z2                     1.000000
z106z220z3                    1.000000
z106z249z2                    1.000000
z169z278z1                    1.000000
z315z89z3                     1.000000
z315z61z2                     1.000000
z315z220z3                    1.000000
z315z249z2                    1.000000
z53z251z3                     1.000000
z53z283z3                     1.000000
z53z220z3                     1.000000
z262z278z1                    1.000000
z262z249z2                    1.000000
z237z305z2                    1.000000
z237z32z2                     1.000000
z68z10z2                      1.000000
z68z27z1                      1.000000
z20z4z2                       1.000000
z20z10z3                      1.000000
z276z4z3                      1.000000
z276z28z1                     1.000000
z170z243z2                    1.000000
z146z28z3                     1.000000
z211z220z3                    1.000000
z300z278z1                    1.000000
z89z243z3                     1.000000
All other variables in the range 1-7351 are 0.
